StudentsNr = 10;
InstructorsNr = 83;
DaysNr = 1;
SlotsPerDay = 10;
AvailabilitySlotsLenght = 10;
RoomNr = 1;
ProgrammNr = 1;
DegreeNr = 1;
RolesNr = 4;
CoursesNr = 2;
InstructorsProgramm = [{1}, {1}, {1}, {1}, {1}, {1}, {1}, {1}, {1}, {1}, {1}, {1}, {1}, {1}, {1}, {1}, {1}, {1}, {1}, {1}, {1}, {1}, {1}, {1}, {1}, {1}, {1}, {1}, {1}, {1}, {1}, {1}, {1}, {1}, {1}, {1}, {1}, {1}, {1}, {1}, {1}, {1}, {1}, {1}, {1}, {1}, {1}, {1}, {1}, {1}, {1}, {1}, {1}, {1}, {1}, {1}, {1}, {1}, {1}, {1}, {1}, {1}, {1}, {1}, {1}, {1}, {1}, {1}, {1}, {1}, {1}, {1}, {1}, {1}, {1}, {1}, {1}, {1}, {1}, {1}, {1}, {1}, {1}];
InstructorRolesPerProgramm = [|{3, 8, 11, 13, 14, 17, 24, 25, 26, 27, 29, 32, 33, 37, 38, 41, 42, 45, 49, 50, 51, 52, 54, 55, 57, 66, 67, 68, 70, 72, 74, 75, 76, 79}, {6, 9, 11, 12, 13, 17, 21, 22, 24, 28, 32, 34, 40, 48, 49, 53, 55, 59, 61, 62, 63, 65, 68, 69, 70, 72, 74, 77, 78, 80, 81, 82}, {2, 4, 6, 7, 10, 11, 13, 14, 15, 21, 22, 26, 27, 29, 34, 37, 38, 40, 41, 42, 43, 45, 46, 49, 50, 56, 57, 58, 60, 62, 66, 67, 68, 69, 71, 73, 77, 78, 79, 80, 81, 82}, {1, 4, 8, 9, 10, 14, 17, 21, 23, 24, 27, 29, 30, 31, 33, 37, 38, 41, 42, 49, 50, 54, 58, 59, 60, 61, 62, 66, 68, 70, 72, 75, 77, 81, 82}|];
InstructorsAvailability = [|1, |0, |1, |0, |0, |0, |0, |1, |1, |0, |1, |1, |1, |1, |1, |1, |0, |1, |1, |1, |1, |1, |1, |0, |1, |1, |0, |1, |0, |0, |0, |1, |1, |0, |1, |1, |0, |0, |0, |1, |0, |1, |0, |1, |1, |0, |1, |0, |0, |1, |0, |1, |1, |1, |0, |0, |0, |1, |1, |0, |1, |1, |1, |1, |1, |1, |0, |1, |0, |1, |0, |0, |1, |0, |1, |0, |1, |1, |1, |1, |1, |0, |1|];
StudentsProgramm = [1, 1, 1, 1, 1, 1, 1, 1, 1, 1];
StudentsDegree = [1, 1, 1, 1, 1, 1, 1, 1, 1, 1];
StudentsSupervisorId = [25, 68, 46, 76, 66, 59, 8, 46, 81, 61];
StudentsCourseIds = [{}, {}, {}, {}, {}, {}, {}, {}, {}, {}];
StudentsAvailability = [|1, |1, |0, |1, |0, |1, |0, |1, |0, |0|];
TheoryticalMinCard = [0, 0, 0, 0, 0, 0, 0, 0, 0, 0];
CoursesInstructorIds = [{29, 63, 75}, {1, 4, 7, 9, 10, 11, 18, 22, 23, 31, 32, 33, 34, 38, 40, 42, 44, 46, 48, 49, 50, 51, 52, 57, 58, 61, 62, 63, 65, 67, 68, 69, 70, 71, 72, 73, 79, 80, 81, 82}];
RolesDemands = [28, 13, 17, 23];
RolesContinuity = [4, 1, 3];
ExamLen = [2, 2, 2, 2, 2, 2, 2, 2, 2, 2];
LunchTsMinLen = 2;
LunchStarts = [4..6];
SupervisorAvailable = 5;
OptimalLunchLenght = [3, 2];
OptimalStartTs = [0, 0];
OptimalFinishTs = [1, 10];
MinimizeRooms = 500;
RolesSoftContinuity = [|1, 2, 3, 4|1, 3, 3, 1|];
SameDegreeInRoom = 10;
Mergeability = 2;
